p td 100 64 
60 35
44 7
44 62
44 74
38 81
38 88
37 4
3 42
3 96
98 4
98 29
82 20
16 10
16 12
16 30
16 88
49 52
41 75
64 27
59 20
59 42
59 62
87 35
93 52
19 100
84 12
84 27
36 46
91 26
91 73
51 5
51 7
24 62
24 90
83 20
83 88
34 74
15 26
15 54
14 52
14 73
14 75
65 7
65 12
65 88
40 78
48 62
48 90
28 52
8 95
99 46
25 35
25 42
25 78
43 32
43 90
22 9
2 56
2 66
92 10
92 18
92 85
31 9
31 90
